p cnf 150 30
x -2 4 7 -10 14 -15 16 20 -21 -26 27 -28 29 30 -35 36 37 -38 -39 41 42 45 -46 48 49 51 57 58 59 -62 -64 -67 -69 70 -71 74 -75 -76 80 -84 85 -86 88 89 -90 91 94 -97 98 -99 -101 103 -109 -110 113 115 -118 -123 126 -127 129 -130 131 -132 133 135 136 -137 138 -139 140 -141 -143 -144 0
x -2 -4 7 9 12 -13 14 17 -18 -20 21 24 -26 28 29 31 -32 33 -34 -36 -37 38 -39 -42 43 -44 45 47 49 -50 51 -52 53 54 -55 -57 58 -60 -67 68 70 -71 72 73 74 75 76 -78 82 -83 84 -87 -89 -95 -96 100 101 102 105 -107 -109 -112 117 118 -120 -121 -122 123 126 -127 128 129 -131 -137 138 139 142 144 146 147 -148 0
x 1 2 -4 7 9 -11 12 -15 16 17 18 -21 23 24 -25 31 -34 -37 40 41 45 -46 49 -53 54 65 66 -67 69 -70 72 74 75 -78 -82 -84 85 87 92 95 -96 98 -101 102 103 -105 -108 -110 112 118 119 -121 125 126 127 -128 130 -131 -132 -136 138 -139 -141 -144 -147 148 149 0
x 3 4 10 -11 13 14 15 18 19 -23 25 27 -28 -30 31 -32 33 37 -38 41 -43 -44 47 48 49 -55 -57 59 -61 66 -71 -75 -76 -81 -82 85 -87 88 -91 92 -93 95 96 97 -100 106 111 -112 113 -116 -118 -121 -122 124 126 -127 -130 135 140 142 143 146 -148 -150 0
x -1 3 6 -7 -8 -10 17 -18 19 -20 -22 23 27 -30 -31 32 33 36 38 -39 -41 42 -46 -48 -55 -60 64 -65 -67 -71 -72 74 -75 76 -77 78 -79 81 -83 -84 85 88 -89 -90 93 -95 97 -99 -100 101 -102 -103 -104 -106 107 108 -116 117 120 -121 -122 123 -124 -126 129 -130 132 -133 -138 -143 -144 145 147 149 -150 0
x -1 -2 -5 6 -8 -12 -14 -18 -19 -20 -22 -24 -27 30 31 -32 33 -34 35 -37 40 -41 44 -49 -52 -53 -54 55 56 57 -59 -60 -63 -64 65 -66 -68 70 71 -72 -74 -75 76 -77 -78 -80 -81 -85 87 89 91 -92 94 95 97 100 -104 106 107 108 110 112 -113 -114 119 -120 121 122 123 -124 125 127 -128 -129 -132 136 139 140 -141 143 -144 -145 146 -148 150 0
x -1 -5 7 -9 14 17 -19 20 24 32 -33 34 -35 38 -39 -40 -42 43 46 -47 -49 54 -55 -59 -60 -62 63 64 -66 68 -71 72 -76 -78 -79 -80 -81 -86 -87 -88 -89 91 92 -93 -94 96 -97 -100 -101 -105 106 109 -112 -114 -115 -116 117 118 119 -120 -122 -124 -126 128 -131 132 134 -137 138 146 147 -149 0
x -1 -2 3 5 -6 -7 -8 10 -11 12 14 -15 16 -17 -18 19 20 -22 23 -24 -25 31 32 -33 -34 -35 37 -38 -39 40 -42 -43 -44 48 -51 -54 55 -56 -57 59 61 66 67 68 70 71 -73 75 -76 -80 -84 -85 86 88 89 -90 -94 98 102 103 105 106 108 110 111 113 -118 123 -124 125 127 -128 -129 131 133 -135 -137 -138 -140 141 143 -144 147 -148 0
x -2 -3 -4 -5 -7 -8 9 -10 12 -13 -15 17 19 21 22 -24 26 27 -28 -29 30 -35 -36 37 39 -40 -41 43 -44 45 48 49 -50 55 -56 -60 -63 -65 -66 -68 69 -74 75 -76 -77 78 -80 81 -82 -83 -84 86 -87 90 -93 -94 95 96 -97 98 100 102 -103 -105 -107 113 -114 115 117 118 120 -123 -125 -126 127 128 -129 -130 -132 -133 -136 138 139 140 -141 -142 -143 145 -147 -148 -149 0
x 4 -9 10 -11 14 -15 -16 -17 18 -22 23 -24 25 27 -28 -30 32 37 -40 41 43 47 50 -51 -53 -56 57 -59 -61 -62 63 -64 -65 -66 -67 -69 -70 71 73 -76 -77 -80 85 86 87 -88 -89 -90 93 -94 -97 -98 -101 102 -103 104 108 109 110 -113 -117 118 119 121 122 125 -127 -128 -129 -130 131 132 -134 -135 -136 -137 -140 141 142 -149 -150 0
x 5 -7 -8 10 -11 -13 15 -17 -18 -19 -20 -23 -25 27 30 31 -34 -35 36 37 -38 41 42 45 -46 -47 48 -49 -50 53 -55 -57 -62 -63 -68 -72 -74 75 -76 78 -81 82 -83 84 86 -88 -89 91 -93 -94 -96 -99 101 -104 -105 -106 107 110 111 114 -116 119 -121 124 125 126 -129 -131 132 -136 -138 139 140 143 144 -145 -146 -147 148 -149 -150 0
x 1 3 -4 5 8 10 -14 16 -17 19 -25 -28 -29 -31 33 34 -35 -36 -37 -38 -44 -45 47 49 -53 -54 57 -58 -62 63 65 66 67 68 69 72 -74 77 -78 79 82 87 90 -91 -92 93 94 -95 96 -97 -98 -99 101 -102 -105 107 -108 -110 111 112 115 -118 121 -122 -130 -131 -132 -133 -134 137 -139 140 145 148 -149 0
x 1 4 7 -9 10 -14 -15 16 -17 18 19 -21 -23 -27 -28 35 40 42 45 -46 -47 -48 49 -50 -51 57 -58 60 -61 63 -65 67 70 71 -72 73 -74 -78 -79 -80 85 86 -88 -91 92 -94 98 -99 -102 105 -106 -107 108 -109 -112 114 116 -117 -118 128 -130 131 132 133 -139 -142 143 -144 -146 147 -149 0
x 1 3 4 7 -9 10 -11 13 14 16 -19 -21 -22 23 -24 -27 -29 -31 33 -36 37 -38 42 43 44 -47 -48 50 -52 54 -58 -59 60 62 -63 65 68 -71 -72 73 -74 -75 -77 -80 -81 -82 -86 -89 90 -92 95 96 -97 98 99 -100 -101 104 105 -106 108 110 113 115 117 -118 119 120 122 123 -124 -126 -128 129 -130 -131 136 138 142 143 -144 145 146 148 0
x 1 3 4 11 12 -17 19 20 -21 -23 -25 -26 -28 -29 31 -32 36 -37 -38 39 40 42 -43 -44 46 48 -49 -53 57 58 -63 64 -66 67 68 -73 74 -76 -78 79 -83 84 86 87 90 91 92 93 94 98 99 -100 101 105 107 -108 109 -110 -111 -112 116 119 120 121 -125 126 -128 130 131 133 -134 -135 -138 -139 141 -143 146 -148 149 -150 0
x 2 4 -5 -10 -11 12 -13 14 -15 -16 -20 21 24 26 28 30 -32 34 -35 37 39 -42 -45 46 -51 -52 56 -57 58 59 61 63 -65 -68 -69 70 72 73 74 75 -76 -78 -79 83 84 -87 -88 89 -90 92 93 95 -97 100 -102 -106 -108 -110 112 -113 114 -118 -119 -121 124 125 -127 -130 131 132 -133 134 -136 138 139 -140 -141 146 -147 148 -149 0
x -2 3 -7 -8 -11 -15 21 -23 24 25 27 -30 -31 -33 -35 -36 42 -44 -46 -48 -51 53 56 57 58 -60 64 66 -67 -68 72 73 74 75 -77 79 80 -81 -82 -84 85 87 91 92 -94 95 -96 -98 101 -102 110 -112 113 114 115 116 118 -119 -123 125 -127 -128 -130 131 132 133 134 -138 139 -142 -143 -144 147 -149 150 0
x -1 -5 -7 8 -10 -11 12 13 -16 -19 21 22 31 32 33 34 35 37 -43 -44 -46 -47 48 49 51 53 -56 57 58 -59 -62 -63 -66 -67 -72 -75 -76 80 -84 85 86 87 -90 -91 -96 -100 101 -103 106 -107 111 -112 114 115 117 120 121 122 -123 124 -127 129 -133 -134 -135 -137 138 -142 -143 -145 -146 147 150 0
x 1 3 -4 7 -8 10 12 -15 -16 -19 22 -25 -29 31 -32 -34 36 37 -38 39 -43 -45 -49 50 -53 -54 -57 59 62 -63 64 66 -67 -69 73 -75 76 77 -82 -83 -84 -85 90 91 -92 -94 97 -98 -99 -101 -102 -105 107 -110 113 114 117 118 -120 -121 123 -124 -126 129 -131 -133 -137 138 140 144 146 -148 149 -150 0
x -2 3 -7 8 -9 10 -11 17 19 23 -24 -25 26 -27 30 -32 33 -34 35 -37 -39 40 -44 -48 -50 -56 57 -60 61 -64 69 71 72 74 -75 77 81 -83 -85 87 -89 -90 -92 -93 95 -97 102 -103 104 107 -108 112 -116 121 -124 -125 128 -130 131 133 -136 -137 140 142 -143 -144 -145 146 147 0
x 2 -8 9 14 -15 -17 -18 -21 -22 -25 -28 -30 -31 32 33 34 35 -39 41 -44 47 -49 -50 53 55 -57 -63 -64 65 66 -68 72 75 -79 81 82 83 85 86 87 88 -90 -93 95 96 -97 100 -102 -104 -106 113 -114 -116 117 118 -119 -120 -129 130 131 -132 133 -134 135 136 -138 -139 140 141 -144 147 149 -150 0
x -1 -11 12 -16 20 -23 -24 -25 30 32 35 38 39 40 -41 -42 44 46 -47 -48 -49 -50 -56 58 -62 63 66 -70 -71 -73 74 75 -80 -81 83 84 87 -88 -89 -92 -95 -96 101 -105 107 112 113 115 116 -117 120 125 -131 -132 -134 135 138 139 -140 -142 143 144 145 -146 148 -149 0
x -1 4 9 -10 -11 12 -14 -15 16 -21 -23 -25 -28 30 31 35 -36 -37 42 46 -47 48 55 -57 -59 60 61 -62 63 -65 -68 -71 73 -74 -75 76 -77 -78 -81 -82 84 -85 87 -90 -91 93 -94 95 -96 97 98 -100 102 -104 105 106 -110 -112 -114 -115 116 118 -120 -122 -126 -127 -128 129 -132 136 137 -141 -144 146 -147 148 149 -150 0
x 1 3 -5 7 -10 -11 -13 16 24 -25 26 -27 -28 30 -32 -34 36 42 -46 -47 48 49 51 52 54 55 56 57 59 -61 -63 66 -67 69 70 -73 -74 75 77 -78 79 80 -81 -84 86 87 89 -93 -94 -96 97 -99 103 -104 -106 107 108 112 114 116 -120 -122 124 125 -129 -130 131 -133 -136 137 140 -142 -143 148 149 0
x 2 -4 -6 7 -8 9 -10 12 -20 21 22 -24 -26 -27 -28 30 -32 -34 35 -40 42 44 45 -46 -47 -49 50 -51 52 -54 56 57 -60 -61 -62 -63 64 -66 68 -69 -70 -71 74 75 -76 -78 -80 82 -83 89 -94 -95 -97 98 -99 -100 -101 -105 -108 110 -112 113 -114 117 121 -123 124 126 127 -128 -129 130 131 133 135 138 -141 142 -143 145 147 148 0
x -1 -2 3 4 7 8 -9 12 14 17 20 21 22 -23 25 27 29 -30 31 -33 34 -36 39 40 41 -43 -44 47 48 49 50 51 53 54 -56 57 -60 61 62 63 -64 -69 72 -73 -80 82 -83 -84 85 89 -90 -95 100 102 103 -106 -107 108 -109 -112 -113 114 116 -119 121 122 126 -128 -129 130 -131 132 133 -135 137 139 141 -142 145 148 149 -150 0
x 1 2 3 -7 -8 11 -12 14 -16 18 -20 21 -22 -23 24 26 28 29 30 33 34 35 38 41 -43 44 45 -46 49 50 51 52 -53 -54 -55 -56 -57 -58 60 -61 63 64 68 -71 -72 76 -78 82 84 88 89 -92 93 -95 96 -97 -98 101 -105 107 -109 112 -116 -117 -120 -121 123 -124 -125 126 -127 134 -135 -138 -139 140 141 -142 146 150 0
x 1 3 -8 12 -13 18 -21 22 23 -24 25 26 -27 29 30 32 -33 34 -35 -36 -37 -38 -40 -41 42 -43 -46 -47 -50 52 56 58 60 -61 -63 -64 65 -67 -69 70 75 -78 79 82 85 86 88 -89 90 91 93 -94 -96 -100 -101 -104 -107 108 -110 -111 120 -121 -122 124 -125 126 128 129 130 131 133 -134 -137 -140 -148 149 0
x -3 -4 5 6 7 -8 9 10 -12 -13 25 -27 -29 -30 -31 -44 -45 -47 -51 -53 57 -59 -60 -63 -68 72 73 76 -77 83 -85 -88 90 95 96 -97 98 99 -100 -101 -104 -105 106 -109 -110 -111 -112 -113 -115 -116 -117 -118 -122 -123 -124 125 127 128 129 -130 131 -132 133 134 135 137 -138 140 -142 143 144 -147 -148 0
x 2 3 4 -10 -13 -15 -17 -20 -21 -22 23 -30 -31 32 -33 -37 -40 42 43 -45 -46 48 -50 -52 -60 62 -63 -64 66 -69 -70 -71 -72 -74 -75 -76 -78 79 82 -83 -85 -88 89 -90 92 -96 -100 -101 -102 -103 106 -107 110 111 112 113 -114 118 119 121 124 125 -126 127 -131 -132 135 -136 -139 140 -141 -142 143 -146 0
g -60